&CONTROL
    calculation = 'scf'
    pseudo_dir = '/home/gridsan/epan1/labutil/lab3_samples/pseudopotentials/'
    outdir = '/home/gridsan/epan1/labutil/lab3_samples/Lab3/Fe_a_3.0_ecut_30_nk_3'
    tstress = .true.
    tprnfor = .true.
    disk_io = 'none'
/ 
&SYSTEM
    ecutwfc = 30
    ecutrho = 240
    nspin = 2
    starting_magnetization(1) = 0.7
    occupations = 'smearing'
    smearing = 'mp'
    degauss = 0.02
    ntyp = 1
    nat = 2
    ibrav = 0
/ 
&ELECTRONS
    diagonalization = 'david'
    mixing_beta = 0.5
    conv_thr = 1e-07
/ 
&IONS
/ 
&CELL
/ 
K_POINTS {automatic}
 3 3 3  0 0 0
ATOMIC_SPECIES
  Fe 55.845 Fe.pbe-nd-rrkjus.UPF
CELL_PARAMETERS {angstrom}
 3.0 0.0 0.0
 -1.5 2.598076211353316 0.0
 0.0 0.0 4.898979485566356
ATOMIC_POSITIONS {angstrom}
  Fe 0.00000 0.00000 0.00000
  Fe 0.00000 1.73205 2.44949
