&CONTROL
    calculation = ’scf’
    tstress = .true.
    tprnfor = .true.
    pseudo_dir = ’/home/gridsan/epan1/’
    outdir = ’/home/gridsan/epan1/labutil/lab2_samples’
/ 
&SYSTEM
    ibrav = 0
    nat = 2
    ntyp = 1
    ecutwfc = 30
/ 
&ELECTRONS
    diagonalization = ’david’
    mixing_beta = 0.5
    conv_thr = 1e-07
/
K_POINTS automatic
    444 000 
ATOMIC_SPECIES
    Ge 72.61 Ge.pz-dn-rrkjus_psl.0.2.2.UPF
CELL_PARAMETERS {angstrom}
    0.0 2.5 2.5
    2.5 0.0 2.5
    2.5 2.5 0.0
ATOMIC_POSITIONS {angstrom}
    Ge 0.00000 0.00000 0.00000
    Ge 1.25000 1.25000 1.25000