&CONTROL
    tstress = .true.
    tprnfor = .true.
    pseudo_dir = '/home/gridsan/rafagb/3320_atomistic_shared/q-e/pseudo/'
    outdir = '/home/gridsan/rafagb/labutil/lab2_samples'
    calculation = 'scf'
/
&SYSTEM
    ntyp = 1
    ibrav = 0
    ecutwfc = 30
    nat = 2
/
&ELECTRONS
    diagonalization = 'david'
    conv_thr = 1e-07
    mixing_beta = 0.5
/
&IONS
/
&CELL
/
K_POINTS {automatic}
 4 4 4  0 0 0
ATOMIC_SPECIES
  Ge 72.61 Ge.pz-dn-rrkjus_psl.0.2.2.UPF
CELL_PARAMETERS {angstrom}
 0.0 2.5 2.5
 2.5 0.0 2.5
 2.5 2.5 0.0
ATOMIC_POSITIONS {angstrom}
  Ge 0.00000 0.00000 0.00000
  Ge 1.25000 1.25000 1.25000
