&CONTROL
    calculation = 'vc-relax'
    pseudo_dir = '/home/gridsan/epan1/labutil/lab3_samples/pseudopotentials/'
    outdir = '/home/gridsan/epan1/labutil/lab3_samples/problem3/Lab3/CuAu_a_2.766_c_3.623_ecut_40_nk_3'
    tstress = .true.
    tprnfor = .true.
    disk_io = 'none'
/ 
&SYSTEM
    ecutwfc = 40
    ecutrho = 320
    nspin = 2
    starting_magnetization(1) = 0.7
    occupations = 'smearing'
    smearing = 'mp'
    degauss = 0.02
    ntyp = 2
    nat = 2
    ibrav = 0
/ 
&ELECTRONS
    diagonalization = 'david'
    mixing_beta = 0.5
    conv_thr = 1e-07
/ 
&IONS
/ 
&CELL
/ 
K_POINTS {automatic}
 3 3 3  0 0 0
ATOMIC_SPECIES
  Au 196.966569 Au.pz-d-rrkjus.UPF
  Cu 63.546 Cu.pz-d-rrkjus.UPF
CELL_PARAMETERS {angstrom}
 2.766 0.0 0.0
 0.0 2.766 0.0
 0.0 0.0 3.623
ATOMIC_POSITIONS {angstrom}
  Cu 0.00000 0.00000 0.00000
  Au 1.38300 1.38300 1.81150
