&CONTROL
    calculation = 'vc-relax'
    pseudo_dir = '/home/gridsan/epan1/labutil/lab3_samples/pseudopotentials/'
    outdir = '/home/gridsan/epan1/labutil/lab3_samples/problem3/Lab3/Au_a_4.0_ecut_40_nk_14'
    tstress = .true.
    tprnfor = .true.
    disk_io = 'none'
/ 
&SYSTEM
    ecutwfc = 40
    ecutrho = 320
    nspin = 2
    starting_magnetization(1) = 0.7
    occupations = 'smearing'
    smearing = 'mp'
    degauss = 0.02
    ntyp = 1
    nat = 1
    ibrav = 0
/ 
&ELECTRONS
    diagonalization = 'david'
    mixing_beta = 0.5
    conv_thr = 1e-07
/ 
&IONS
/ 
&CELL
/ 
K_POINTS {automatic}
 14 14 14  0 0 0
ATOMIC_SPECIES
  Au 196.966569 Au.pz-d-rrkjus.UPF
CELL_PARAMETERS {angstrom}
 0.0 2.0 2.0
 2.0 0.0 2.0
 2.0 2.0 0.0
ATOMIC_POSITIONS {angstrom}
  Au 0.00000 0.00000 0.00000
