&CONTROL
    calculation = 'scf'
    pseudo_dir = './'
    outdir = '/home/gridsan/epan1/labutil/lab2_samples/Lab2/Problem1/2.5'
    tstress = .true.
    tprnfor = .true.
    disk_io = 'none'
/ 
&SYSTEM
    ecutwfc = 30
    nat = 2
    ibrav = 0
    ntyp = 1
/ 
&ELECTRONS
    diagonalization = 'david'
    mixing_beta = 0.5
    conv_thr = 1e-07
/ 
&IONS
/ 
&CELL
/ 
K_POINTS {automatic}
 3 3 3  0 0 0
ATOMIC_SPECIES
  Ge 72.63 Ge.pz-dn-rrkjus_psl.0.2.2.UPF
CELL_PARAMETERS {angstrom}
 0.0 1.25 1.25
 1.25 0.0 1.25
 1.25 1.25 0.0
ATOMIC_POSITIONS {angstrom}
  Ge 0.00000 0.00000 0.00000
  Ge 0.62500 0.62500 0.62500
